#######################################
### Exact MIP solver for the HHCRSP ###
#######################################
-- Instance file: new-instances/HHCRSP_100_20_95_1.6_C_C.txt
-- Max threads: 4
-- Time limit: 999999 seconds
-- Use initial solution: No
Trivial flow violations prevented generating 45275 variables.
Model exported.
Version identifier: 20.1.0.0 | 2020-11-10 | 9bedb6d68
CPXPARAM_Threads                                 4
CPXPARAM_TimeLimit                               999999
Parallel mode: deterministic, using up to 4 threads for concurrent optimization:
 * Starting dual Simplex on 1 thread...
 * Starting Barrier on 3 threads...
Tried aggregator 1 time.
LP Presolve eliminated 5070 rows and 1156 columns.
Reduced LP has 45622 rows, 43848 columns, and 499531 nonzeros.
Presolve time = 0.26 sec. (131.87 ticks)
Symmetry aggregator did 50920 additional substitutions.
Initializing dual steep norms . . .

Iteration log . . .
Iteration:     1   Dual objective     =             0.333333

Dual crossover.
  Dual:  Fixing 251 variables.
      250 DMoves:  Infeasibility  6.97775179e-14  Objective  1.08333333e+02
        0 DMoves:  Infeasibility  4.95159477e-14  Objective  1.08333333e+02
  Dual:  Pushed 21, exchanged 230.
  Primal:  Fixing 94 variables.
       93 PMoves:  Infeasibility  1.11022302e-16  Objective  1.08333333e+02
        0 PMoves:  Infeasibility  1.11022302e-16  Objective  1.08333333e+02
  Primal:  Pushed 46, exchanged 48.

Dual simplex solved model.


Solution status from MIP model:
-- Processing time: 0.43 sec.
-- Memory used: 100.468 MB
-- Best bound: inf
-- Obj value: 108.333
-- Gap: inf%
-- Total distance: 325
-- Total tardiness: 0
-- Largest tardiness: 0
